(set-option :produce-models true)
(set-logic QF_LRA)
(set-info :notes | Strip-packing problem.|)
(declare-fun x0 () Real)
(declare-fun y0 () Real)
(declare-fun x1 () Real)
(declare-fun y1 () Real)
(declare-fun x2 () Real)
(declare-fun y2 () Real)
(declare-fun x3 () Real)
(declare-fun y3 () Real)
(declare-fun x4 () Real)
(declare-fun y4 () Real)
(declare-fun x5 () Real)
(declare-fun y5 () Real)
(declare-fun x6 () Real)
(declare-fun y6 () Real)
(declare-fun x7 () Real)
(declare-fun y7 () Real)
(declare-fun x8 () Real)
(declare-fun y8 () Real)
(declare-fun x9 () Real)
(declare-fun y9 () Real)
(declare-fun x10 () Real)
(declare-fun y10 () Real)
(declare-fun x11 () Real)
(declare-fun y11 () Real)
(declare-fun z () Real)
(declare-fun c () Real)
(assert (and (= c z) (and (>= x0 0) 
(and (>= y0 0) 
(and (>= x1 0) 
(and (>= y1 0) 
(and (>= x2 0) 
(and (>= y2 0) 
(and (>= x3 0) 
(and (>= y3 0) 
(and (>= x4 0) 
(and (>= y4 0) 
(and (>= x5 0) 
(and (>= y5 0) 
(and (>= x6 0) 
(and (>= y6 0) 
(and (>= x7 0) 
(and (>= y7 0) 
(and (>= x8 0) 
(and (>= y8 0) 
(and (>= x9 0) 
(and (>= y9 0) 
(and (>= x10 0) 
(and (>= y10 0) 
(and (>= x11 0) 
(and (>= y11 0) 
(and (>= z 0) 
(and (>= c 0) 
(and (<= (+ x0 0.0422363859) z) 
(and (<= 0.9667358878 y0) 
(and (<= y0 1.73205080757) 
(and (<= x0 (- 3.637385341 0.0422363859)) 
(and (>= x0 0) 
(and (<= (+ x1 0.9763401377) z) 
(and (<= 0.897544153 y1) 
(and (<= y1 1.73205080757) 
(and (<= x1 (- 3.637385341 0.9763401377)) 
(and (>= x1 0) 
(and (<= (+ x2 0.4324317915) z) 
(and (<= 0.7699530479 y2) 
(and (<= y2 1.73205080757) 
(and (<= x2 (- 3.637385341 0.4324317915)) 
(and (>= x2 0) 
(and (<= (+ x3 0.5463291364) z) 
(and (<= 0.6565302591 y3) 
(and (<= y3 1.73205080757) 
(and (<= x3 (- 3.637385341 0.5463291364)) 
(and (>= x3 0) 
(and (<= (+ x4 0.4767304025) z) 
(and (<= 0.6409178865 y4) 
(and (<= y4 1.73205080757) 
(and (<= x4 (- 3.637385341 0.4767304025)) 
(and (>= x4 0) 
(and (<= (+ x5 0.4875556351) z) 
(and (<= 0.6075845985 y5) 
(and (<= y5 1.73205080757) 
(and (<= x5 (- 3.637385341 0.4875556351)) 
(and (>= x5 0) 
(and (<= (+ x6 0.9590912775) z) 
(and (<= 0.5814673926 y6) 
(and (<= y6 1.73205080757) 
(and (<= x6 (- 3.637385341 0.9590912775)) 
(and (>= x6 0) 
(and (<= (+ x7 0.6481537442) z) 
(and (<= 0.569813754 y7) 
(and (<= y7 1.73205080757) 
(and (<= x7 (- 3.637385341 0.6481537442)) 
(and (>= x7 0) 
(and (<= (+ x8 0.5184472224) z) 
(and (<= 0.4533122256 y8) 
(and (<= y8 1.73205080757) 
(and (<= x8 (- 3.637385341 0.5184472224)) 
(and (>= x8 0) 
(and (<= (+ x9 0.6258327684) z) 
(and (<= 0.3123986471 y9) 
(and (<= y9 1.73205080757) 
(and (<= x9 (- 3.637385341 0.6258327684)) 
(and (>= x9 0) 
(and (<= (+ x10 0.0825962214) z) 
(and (<= 0.1012616432 y10) 
(and (<= y10 1.73205080757) 
(and (<= x10 (- 3.637385341 0.0825962214)) 
(and (>= x10 0) 
(and (<= (+ x11 0.7361933593) z) 
(and (<= 0.0344269068 y11) 
(and (<= y11 1.73205080757) 
(and (<= x11 (- 3.637385341 0.7361933593)) 
(and (>= x11 0) 
(and (<= c 3.637385341) 
(and (or (<= (+ x0 0.0422363859) x1) (or (<= (+ x1 0.9763401377) x0) (or (>= (- y0 0.9667358878) y1) (or (>= (- y1 0.897544153) y0))))) 
(and (or (<= (+ x0 0.0422363859) x2) (or (<= (+ x2 0.4324317915) x0) (or (>= (- y0 0.9667358878) y2) (or (>= (- y2 0.7699530479) y0))))) 
(and (or (<= (+ x0 0.0422363859) x3) (or (<= (+ x3 0.5463291364) x0) (or (>= (- y0 0.9667358878) y3) (or (>= (- y3 0.6565302591) y0))))) 
(and (or (<= (+ x0 0.0422363859) x4) (or (<= (+ x4 0.4767304025) x0) (or (>= (- y0 0.9667358878) y4) (or (>= (- y4 0.6409178865) y0))))) 
(and (or (<= (+ x0 0.0422363859) x5) (or (<= (+ x5 0.4875556351) x0) (or (>= (- y0 0.9667358878) y5) (or (>= (- y5 0.6075845985) y0))))) 
(and (or (<= (+ x0 0.0422363859) x6) (or (<= (+ x6 0.9590912775) x0) (or (>= (- y0 0.9667358878) y6) (or (>= (- y6 0.5814673926) y0))))) 
(and (or (<= (+ x0 0.0422363859) x7) (or (<= (+ x7 0.6481537442) x0) (or (>= (- y0 0.9667358878) y7) (or (>= (- y7 0.569813754) y0))))) 
(and (or (<= (+ x0 0.0422363859) x8) (or (<= (+ x8 0.5184472224) x0) (or (>= (- y0 0.9667358878) y8) (or (>= (- y8 0.4533122256) y0))))) 
(and (or (<= (+ x0 0.0422363859) x9) (or (<= (+ x9 0.6258327684) x0) (or (>= (- y0 0.9667358878) y9) (or (>= (- y9 0.3123986471) y0))))) 
(and (or (<= (+ x0 0.0422363859) x10) (or (<= (+ x10 0.0825962214) x0) (or (>= (- y0 0.9667358878) y10) (or (>= (- y10 0.1012616432) y0))))) 
(and (or (<= (+ x0 0.0422363859) x11) (or (<= (+ x11 0.7361933593) x0) (or (>= (- y0 0.9667358878) y11) (or (>= (- y11 0.0344269068) y0))))) 
(and (or (<= (+ x1 0.9763401377) x2) (or (<= (+ x2 0.4324317915) x1) (or (>= (- y1 0.897544153) y2) (or (>= (- y2 0.7699530479) y1))))) 
(and (or (<= (+ x1 0.9763401377) x3) (or (<= (+ x3 0.5463291364) x1) (or (>= (- y1 0.897544153) y3) (or (>= (- y3 0.6565302591) y1))))) 
(and (or (<= (+ x1 0.9763401377) x4) (or (<= (+ x4 0.4767304025) x1) (or (>= (- y1 0.897544153) y4) (or (>= (- y4 0.6409178865) y1))))) 
(and (or (<= (+ x1 0.9763401377) x5) (or (<= (+ x5 0.4875556351) x1) (or (>= (- y1 0.897544153) y5) (or (>= (- y5 0.6075845985) y1))))) 
(and (or (<= (+ x1 0.9763401377) x6) (or (<= (+ x6 0.9590912775) x1) (or (>= (- y1 0.897544153) y6) (or (>= (- y6 0.5814673926) y1))))) 
(and (or (<= (+ x1 0.9763401377) x7) (or (<= (+ x7 0.6481537442) x1) (or (>= (- y1 0.897544153) y7) (or (>= (- y7 0.569813754) y1))))) 
(and (or (<= (+ x1 0.9763401377) x8) (or (<= (+ x8 0.5184472224) x1) (or (>= (- y1 0.897544153) y8) (or (>= (- y8 0.4533122256) y1))))) 
(and (or (<= (+ x1 0.9763401377) x9) (or (<= (+ x9 0.6258327684) x1) (or (>= (- y1 0.897544153) y9) (or (>= (- y9 0.3123986471) y1))))) 
(and (or (<= (+ x1 0.9763401377) x10) (or (<= (+ x10 0.0825962214) x1) (or (>= (- y1 0.897544153) y10) (or (>= (- y10 0.1012616432) y1))))) 
(and (or (<= (+ x1 0.9763401377) x11) (or (<= (+ x11 0.7361933593) x1) (or (>= (- y1 0.897544153) y11) (or (>= (- y11 0.0344269068) y1))))) 
(and (or (<= (+ x2 0.4324317915) x3) (or (<= (+ x3 0.5463291364) x2) (or (>= (- y2 0.7699530479) y3) (or (>= (- y3 0.6565302591) y2))))) 
(and (or (<= (+ x2 0.4324317915) x4) (or (<= (+ x4 0.4767304025) x2) (or (>= (- y2 0.7699530479) y4) (or (>= (- y4 0.6409178865) y2))))) 
(and (or (<= (+ x2 0.4324317915) x5) (or (<= (+ x5 0.4875556351) x2) (or (>= (- y2 0.7699530479) y5) (or (>= (- y5 0.6075845985) y2))))) 
(and (or (<= (+ x2 0.4324317915) x6) (or (<= (+ x6 0.9590912775) x2) (or (>= (- y2 0.7699530479) y6) (or (>= (- y6 0.5814673926) y2))))) 
(and (or (<= (+ x2 0.4324317915) x7) (or (<= (+ x7 0.6481537442) x2) (or (>= (- y2 0.7699530479) y7) (or (>= (- y7 0.569813754) y2))))) 
(and (or (<= (+ x2 0.4324317915) x8) (or (<= (+ x8 0.5184472224) x2) (or (>= (- y2 0.7699530479) y8) (or (>= (- y8 0.4533122256) y2))))) 
(and (or (<= (+ x2 0.4324317915) x9) (or (<= (+ x9 0.6258327684) x2) (or (>= (- y2 0.7699530479) y9) (or (>= (- y9 0.3123986471) y2))))) 
(and (or (<= (+ x2 0.4324317915) x10) (or (<= (+ x10 0.0825962214) x2) (or (>= (- y2 0.7699530479) y10) (or (>= (- y10 0.1012616432) y2))))) 
(and (or (<= (+ x2 0.4324317915) x11) (or (<= (+ x11 0.7361933593) x2) (or (>= (- y2 0.7699530479) y11) (or (>= (- y11 0.0344269068) y2))))) 
(and (or (<= (+ x3 0.5463291364) x4) (or (<= (+ x4 0.4767304025) x3) (or (>= (- y3 0.6565302591) y4) (or (>= (- y4 0.6409178865) y3))))) 
(and (or (<= (+ x3 0.5463291364) x5) (or (<= (+ x5 0.4875556351) x3) (or (>= (- y3 0.6565302591) y5) (or (>= (- y5 0.6075845985) y3))))) 
(and (or (<= (+ x3 0.5463291364) x6) (or (<= (+ x6 0.9590912775) x3) (or (>= (- y3 0.6565302591) y6) (or (>= (- y6 0.5814673926) y3))))) 
(and (or (<= (+ x3 0.5463291364) x7) (or (<= (+ x7 0.6481537442) x3) (or (>= (- y3 0.6565302591) y7) (or (>= (- y7 0.569813754) y3))))) 
(and (or (<= (+ x3 0.5463291364) x8) (or (<= (+ x8 0.5184472224) x3) (or (>= (- y3 0.6565302591) y8) (or (>= (- y8 0.4533122256) y3))))) 
(and (or (<= (+ x3 0.5463291364) x9) (or (<= (+ x9 0.6258327684) x3) (or (>= (- y3 0.6565302591) y9) (or (>= (- y9 0.3123986471) y3))))) 
(and (or (<= (+ x3 0.5463291364) x10) (or (<= (+ x10 0.0825962214) x3) (or (>= (- y3 0.6565302591) y10) (or (>= (- y10 0.1012616432) y3))))) 
(and (or (<= (+ x3 0.5463291364) x11) (or (<= (+ x11 0.7361933593) x3) (or (>= (- y3 0.6565302591) y11) (or (>= (- y11 0.0344269068) y3))))) 
(and (or (<= (+ x4 0.4767304025) x5) (or (<= (+ x5 0.4875556351) x4) (or (>= (- y4 0.6409178865) y5) (or (>= (- y5 0.6075845985) y4))))) 
(and (or (<= (+ x4 0.4767304025) x6) (or (<= (+ x6 0.9590912775) x4) (or (>= (- y4 0.6409178865) y6) (or (>= (- y6 0.5814673926) y4))))) 
(and (or (<= (+ x4 0.4767304025) x7) (or (<= (+ x7 0.6481537442) x4) (or (>= (- y4 0.6409178865) y7) (or (>= (- y7 0.569813754) y4))))) 
(and (or (<= (+ x4 0.4767304025) x8) (or (<= (+ x8 0.5184472224) x4) (or (>= (- y4 0.6409178865) y8) (or (>= (- y8 0.4533122256) y4))))) 
(and (or (<= (+ x4 0.4767304025) x9) (or (<= (+ x9 0.6258327684) x4) (or (>= (- y4 0.6409178865) y9) (or (>= (- y9 0.3123986471) y4))))) 
(and (or (<= (+ x4 0.4767304025) x10) (or (<= (+ x10 0.0825962214) x4) (or (>= (- y4 0.6409178865) y10) (or (>= (- y10 0.1012616432) y4))))) 
(and (or (<= (+ x4 0.4767304025) x11) (or (<= (+ x11 0.7361933593) x4) (or (>= (- y4 0.6409178865) y11) (or (>= (- y11 0.0344269068) y4))))) 
(and (or (<= (+ x5 0.4875556351) x6) (or (<= (+ x6 0.9590912775) x5) (or (>= (- y5 0.6075845985) y6) (or (>= (- y6 0.5814673926) y5))))) 
(and (or (<= (+ x5 0.4875556351) x7) (or (<= (+ x7 0.6481537442) x5) (or (>= (- y5 0.6075845985) y7) (or (>= (- y7 0.569813754) y5))))) 
(and (or (<= (+ x5 0.4875556351) x8) (or (<= (+ x8 0.5184472224) x5) (or (>= (- y5 0.6075845985) y8) (or (>= (- y8 0.4533122256) y5))))) 
(and (or (<= (+ x5 0.4875556351) x9) (or (<= (+ x9 0.6258327684) x5) (or (>= (- y5 0.6075845985) y9) (or (>= (- y9 0.3123986471) y5))))) 
(and (or (<= (+ x5 0.4875556351) x10) (or (<= (+ x10 0.0825962214) x5) (or (>= (- y5 0.6075845985) y10) (or (>= (- y10 0.1012616432) y5))))) 
(and (or (<= (+ x5 0.4875556351) x11) (or (<= (+ x11 0.7361933593) x5) (or (>= (- y5 0.6075845985) y11) (or (>= (- y11 0.0344269068) y5))))) 
(and (or (<= (+ x6 0.9590912775) x7) (or (<= (+ x7 0.6481537442) x6) (or (>= (- y6 0.5814673926) y7) (or (>= (- y7 0.569813754) y6))))) 
(and (or (<= (+ x6 0.9590912775) x8) (or (<= (+ x8 0.5184472224) x6) (or (>= (- y6 0.5814673926) y8) (or (>= (- y8 0.4533122256) y6))))) 
(and (or (<= (+ x6 0.9590912775) x9) (or (<= (+ x9 0.6258327684) x6) (or (>= (- y6 0.5814673926) y9) (or (>= (- y9 0.3123986471) y6))))) 
(and (or (<= (+ x6 0.9590912775) x10) (or (<= (+ x10 0.0825962214) x6) (or (>= (- y6 0.5814673926) y10) (or (>= (- y10 0.1012616432) y6))))) 
(and (or (<= (+ x6 0.9590912775) x11) (or (<= (+ x11 0.7361933593) x6) (or (>= (- y6 0.5814673926) y11) (or (>= (- y11 0.0344269068) y6))))) 
(and (or (<= (+ x7 0.6481537442) x8) (or (<= (+ x8 0.5184472224) x7) (or (>= (- y7 0.569813754) y8) (or (>= (- y8 0.4533122256) y7))))) 
(and (or (<= (+ x7 0.6481537442) x9) (or (<= (+ x9 0.6258327684) x7) (or (>= (- y7 0.569813754) y9) (or (>= (- y9 0.3123986471) y7))))) 
(and (or (<= (+ x7 0.6481537442) x10) (or (<= (+ x10 0.0825962214) x7) (or (>= (- y7 0.569813754) y10) (or (>= (- y10 0.1012616432) y7))))) 
(and (or (<= (+ x7 0.6481537442) x11) (or (<= (+ x11 0.7361933593) x7) (or (>= (- y7 0.569813754) y11) (or (>= (- y11 0.0344269068) y7))))) 
(and (or (<= (+ x8 0.5184472224) x9) (or (<= (+ x9 0.6258327684) x8) (or (>= (- y8 0.4533122256) y9) (or (>= (- y9 0.3123986471) y8))))) 
(and (or (<= (+ x8 0.5184472224) x10) (or (<= (+ x10 0.0825962214) x8) (or (>= (- y8 0.4533122256) y10) (or (>= (- y10 0.1012616432) y8))))) 
(and (or (<= (+ x8 0.5184472224) x11) (or (<= (+ x11 0.7361933593) x8) (or (>= (- y8 0.4533122256) y11) (or (>= (- y11 0.0344269068) y8))))) 
(and (or (<= (+ x9 0.6258327684) x10) (or (<= (+ x10 0.0825962214) x9) (or (>= (- y9 0.3123986471) y10) (or (>= (- y10 0.1012616432) y9))))) 
(and (or (<= (+ x9 0.6258327684) x11) (or (<= (+ x11 0.7361933593) x9) (or (>= (- y9 0.3123986471) y11) (or (>= (- y11 0.0344269068) y9))))) 
(and (or (<= (+ x10 0.0825962214) x11) (or (<= (+ x11 0.7361933593) x10) (or (>= (- y10 0.1012616432) y11) (or (>= (- y11 0.0344269068) y10))))) )))))))))))))))))))))))))))))))))))))))))))))))))))))))))))))))))))))))))))))))))))))))))))))))))))))))))))))))))))))))))))))))))))))))))))))))))))))))))))
(minimize c)
(check-sat)
(get-objectives)
(exit)
